-1 44 32 35 70 74 72 22 74 
44 -1 83 54 14 2 41 44 49 
32 83 -1 87 34 4 12 8 9 
35 54 87 -1 33 64 46 61 34 
70 14 34 33 -1 96 57 1 73 
74 2 4 64 96 -1 46 51 67 
72 41 12 46 57 46 -1 8 44 
22 44 8 61 1 51 8 -1 35 
74 49 9 34 73 67 44 35 -1 
